p cnf 312 804
-1 -127 0 
-1 -63 -62 0 
-1 63 62 0 
1 -63 62 0 
1 63 -62 0 
1 2 127 0 
-2 -62 0 
-2 -127 0 
-2 -64 -61 0 
-2 64 61 0 
2 -61 62 0 
2 -64 61 0 
2 64 -61 0 
-3 -61 0 
-3 -128 0 
-3 -65 -60 0 
-3 65 60 0 
3 -60 61 0 
3 -65 60 0 
3 65 -60 0 
3 -127 128 0 
-4 -60 0 
-4 -129 0 
-4 -66 -59 0 
-4 66 59 0 
4 -59 60 0 
4 -66 59 0 
4 66 -59 0 
4 -128 129 0 
-5 -59 0 
-5 -130 0 
-5 -67 -58 0 
-5 67 58 0 
5 -58 59 0 
5 -67 58 0 
5 67 -58 0 
5 -129 130 0 
-6 -58 0 
-6 -131 0 
-6 -68 -57 0 
-6 68 57 0 
6 -57 58 0 
6 -68 57 0 
6 68 -57 0 
6 -130 131 0 
-7 -57 0 
-7 -132 0 
-7 -69 -56 0 
-7 69 56 0 
7 -56 57 0 
7 -69 56 0 
7 69 -56 0 
7 -131 132 0 
-8 -56 0 
-8 -133 0 
-8 -70 -55 0 
-8 70 55 0 
8 -55 56 0 
8 -70 55 0 
8 70 -55 0 
8 -132 133 0 
-9 -55 0 
-9 -134 0 
-9 -71 -54 0 
-9 71 54 0 
9 -54 55 0 
9 -71 54 0 
9 71 -54 0 
9 -133 134 0 
-10 -54 0 
-10 -135 0 
-10 -72 -53 0 
-10 72 53 0 
10 -53 54 0 
10 -72 53 0 
10 72 -53 0 
10 -134 135 0 
-11 -53 0 
-11 -136 0 
-11 -73 -52 0 
-11 73 52 0 
11 -52 53 0 
11 -73 52 0 
11 73 -52 0 
11 -135 136 0 
-12 -52 0 
-12 -137 0 
-12 -74 -51 0 
-12 74 51 0 
12 -51 52 0 
12 -74 51 0 
12 74 -51 0 
12 -136 137 0 
-13 -51 0 
-13 -138 0 
-13 -75 -50 0 
-13 75 50 0 
13 -50 51 0 
13 -75 50 0 
13 75 -50 0 
13 -137 138 0 
-14 -50 0 
-14 -139 0 
-14 -76 -49 0 
-14 76 49 0 
14 -49 50 0 
14 -76 49 0 
14 76 -49 0 
14 -138 139 0 
-15 -49 0 
-15 -140 0 
-15 -77 -48 0 
-15 77 48 0 
15 -48 49 0 
15 -77 48 0 
15 77 -48 0 
15 -139 140 0 
-16 -48 0 
-16 -141 0 
-16 -78 -47 0 
-16 78 47 0 
16 -47 48 0 
16 -78 47 0 
16 78 -47 0 
16 -140 141 0 
-17 -47 0 
-17 -142 0 
-17 -79 -46 0 
-17 79 46 0 
17 -46 47 0 
17 -79 46 0 
17 79 -46 0 
17 -141 142 0 
-18 -46 0 
-18 -143 0 
-18 -80 -45 0 
-18 80 45 0 
18 -45 46 0 
18 -80 45 0 
18 80 -45 0 
18 -142 143 0 
-19 -45 0 
-19 -144 0 
-19 -81 -44 0 
-19 81 44 0 
19 -44 45 0 
19 -81 44 0 
19 81 -44 0 
19 -143 144 0 
-20 -44 0 
-20 -145 0 
-20 -82 -43 0 
-20 82 43 0 
20 -43 44 0 
20 -82 43 0 
20 82 -43 0 
20 -144 145 0 
-21 -43 0 
-21 -146 0 
-21 -83 -42 0 
-21 83 42 0 
21 -42 43 0 
21 -83 42 0 
21 83 -42 0 
21 -145 146 0 
-22 -42 0 
-22 -147 0 
-22 -84 -41 0 
-22 84 41 0 
22 -41 42 0 
22 -84 41 0 
22 84 -41 0 
22 -146 147 0 
-23 -41 0 
-23 -148 0 
-23 -85 -40 0 
-23 85 40 0 
23 -40 41 0 
23 -85 40 0 
23 85 -40 0 
23 -147 148 0 
-24 -40 0 
-24 -149 0 
-24 -86 -39 0 
-24 86 39 0 
24 -39 40 0 
24 -86 39 0 
24 86 -39 0 
24 -148 149 0 
-25 -39 0 
-25 -150 0 
-25 -87 -38 0 
-25 87 38 0 
25 -38 39 0 
25 -87 38 0 
25 87 -38 0 
25 -149 150 0 
-26 -38 0 
-26 -151 0 
-26 -88 37 0 
-26 88 -37 0 
26 37 38 0 
26 -88 -37 0 
26 88 37 0 
26 -150 151 0 
-27 -89 0 
-27 -36 37 0 
-27 -151 152 0 
27 -37 0 
27 -152 0 
27 36 89 0 
-28 -91 0 
-28 -153 0 
-28 -35 36 0 
28 -36 0 
28 35 91 0 
28 -152 153 0 
-29 -93 0 
-29 34 35 0 
-29 -153 154 0 
29 -35 0 
29 -154 0 
29 -34 93 0 
-30 -34 0 
-30 -155 0 
-30 -95 -33 0 
-30 95 33 0 
30 -33 34 0 
30 -95 33 0 
30 95 -33 0 
30 -154 155 0 
-31 -33 0 
-31 -96 32 0 
-31 96 -32 0 
-31 -155 156 0 
31 -156 0 
31 32 33 0 
31 -96 -32 0 
31 96 32 0 
-32 -33 0 
-32 -156 0 
-32 -125 126 0 
32 -126 0 
33 -34 0 
-34 -35 0 
34 -93 0 
-35 -91 0 
-35 -94 0 
35 -36 0 
35 93 94 0 
-36 -89 0 
-36 -92 0 
36 -37 0 
36 91 92 0 
-37 -38 0 
-37 -90 0 
37 89 90 0 
38 -39 0 
39 -40 0 
40 -41 0 
41 -42 0 
42 -43 0 
43 -44 0 
44 -45 0 
45 -46 0 
46 -47 0 
47 -48 0 
48 -49 0 
49 -50 0 
50 -51 0 
51 -52 0 
52 -53 0 
53 -54 0 
54 -55 0 
55 -56 0 
56 -57 0 
57 -58 0 
58 -59 0 
59 -60 0 
60 -61 0 
61 -62 0 
63 126 0 
-64 -97 0 
64 65 97 0 
-65 -97 0 
-66 -98 0 
66 -97 98 0 
-67 -99 0 
67 -98 99 0 
-68 -100 0 
68 -99 100 0 
-69 -101 0 
69 -100 101 0 
-70 -102 0 
70 -101 102 0 
-71 -103 0 
71 -102 103 0 
-72 -104 0 
72 -103 104 0 
-73 -105 0 
73 -104 105 0 
-74 -106 0 
74 -105 106 0 
-75 -107 0 
75 -106 107 0 
-76 -108 0 
76 -107 108 0 
-77 -109 0 
77 -108 109 0 
-78 -110 0 
78 -109 110 0 
-79 -111 0 
79 -110 111 0 
-80 -112 0 
80 -111 112 0 
-81 -113 0 
81 -112 113 0 
-82 -114 0 
82 -113 114 0 
-83 -115 0 
83 -114 115 0 
-84 -116 0 
84 -115 116 0 
-85 -117 0 
85 -116 117 0 
-86 -118 0 
86 -117 118 0 
-87 -119 0 
87 -118 119 0 
-88 -120 0 
88 -119 120 0 
-89 -90 0 
-90 -121 0 
90 -120 121 0 
-91 -92 0 
-92 -122 0 
92 -121 122 0 
-93 -94 0 
-94 -123 0 
94 -122 123 0 
-95 -124 0 
95 -123 124 0 
-96 -125 0 
96 -124 125 0 
97 -98 0 
98 -99 0 
99 -100 0 
100 -101 0 
101 -102 0 
102 -103 0 
103 -104 0 
104 -105 0 
105 -106 0 
106 -107 0 
107 -108 0 
108 -109 0 
109 -110 0 
110 -111 0 
111 -112 0 
112 -113 0 
113 -114 0 
114 -115 0 
115 -116 0 
116 -117 0 
117 -118 0 
118 -119 0 
119 -120 0 
120 -121 0 
121 -122 0 
122 -123 0 
123 -124 0 
124 -125 0 
125 -126 0 
127 -128 0 
128 -129 0 
129 -130 0 
130 -131 0 
131 -132 0 
132 -133 0 
133 -134 0 
134 -135 0 
135 -136 0 
136 -137 0 
137 -138 0 
138 -139 0 
139 -140 0 
140 -141 0 
141 -142 0 
142 -143 0 
143 -144 0 
144 -145 0 
145 -146 0 
146 -147 0 
147 -148 0 
148 -149 0 
149 -150 0 
150 -151 0 
151 -152 0 
152 -153 0 
153 -154 0 
154 -155 0 
155 -156 0 
-157 -189 0 
-157 -249 -248 0 
-157 249 248 0 
157 158 189 0 
157 -249 248 0 
157 249 -248 0 
-158 -189 0 
-158 -248 0 
-158 -250 -247 0 
-158 250 247 0 
158 -247 248 0 
158 -250 247 0 
158 250 -247 0 
-159 -190 0 
-159 -247 0 
-159 -251 -246 0 
-159 251 246 0 
159 -189 190 0 
159 -246 247 0 
159 -251 246 0 
159 251 -246 0 
-160 -191 0 
-160 -246 0 
-160 -252 -245 0 
-160 252 245 0 
160 -190 191 0 
160 -245 246 0 
160 -252 245 0 
160 252 -245 0 
-161 -192 0 
-161 -245 0 
-161 -253 -244 0 
-161 253 244 0 
161 -191 192 0 
161 -244 245 0 
161 -253 244 0 
161 253 -244 0 
-162 -193 0 
-162 -244 0 
-162 -254 -243 0 
-162 254 243 0 
162 -192 193 0 
162 -243 244 0 
162 -254 243 0 
162 254 -243 0 
-163 -194 0 
-163 -243 0 
-163 -255 -242 0 
-163 255 242 0 
163 -193 194 0 
163 -242 243 0 
163 -255 242 0 
163 255 -242 0 
-164 -195 0 
-164 -242 0 
-164 -256 -241 0 
-164 256 241 0 
164 -194 195 0 
164 -241 242 0 
164 -256 241 0 
164 256 -241 0 
-165 -196 0 
-165 -241 0 
-165 -257 -240 0 
-165 257 240 0 
165 -195 196 0 
165 -240 241 0 
165 -257 240 0 
165 257 -240 0 
-166 -197 0 
-166 -240 0 
-166 -258 -239 0 
-166 258 239 0 
166 -196 197 0 
166 -239 240 0 
166 -258 239 0 
166 258 -239 0 
-167 -198 0 
-167 -239 0 
-167 -259 -238 0 
-167 259 238 0 
167 -197 198 0 
167 -238 239 0 
167 -259 238 0 
167 259 -238 0 
-168 -199 0 
-168 -238 0 
-168 -260 -237 0 
-168 260 237 0 
168 -198 199 0 
168 -237 238 0 
168 -260 237 0 
168 260 -237 0 
-169 -200 0 
-169 -237 0 
-169 -261 -236 0 
-169 261 236 0 
169 -199 200 0 
169 -236 237 0 
169 -261 236 0 
169 261 -236 0 
-170 -201 0 
-170 -236 0 
-170 -262 -235 0 
-170 262 235 0 
170 -200 201 0 
170 -235 236 0 
170 -262 235 0 
170 262 -235 0 
-171 -202 0 
-171 -235 0 
-171 -263 -234 0 
-171 263 234 0 
171 -201 202 0 
171 -234 235 0 
171 -263 234 0 
171 263 -234 0 
-172 -203 0 
-172 -234 0 
-172 -264 -233 0 
-172 264 233 0 
172 -202 203 0 
172 -233 234 0 
172 -264 233 0 
172 264 -233 0 
-173 -204 0 
-173 -233 0 
-173 -265 -232 0 
-173 265 232 0 
173 -203 204 0 
173 -232 233 0 
173 -265 232 0 
173 265 -232 0 
-174 -205 0 
-174 -232 0 
-174 -266 -231 0 
-174 266 231 0 
174 -204 205 0 
174 -231 232 0 
174 -266 231 0 
174 266 -231 0 
-175 -206 0 
-175 -231 0 
-175 -267 -230 0 
-175 267 230 0 
175 -205 206 0 
175 -230 231 0 
175 -267 230 0 
175 267 -230 0 
-176 -207 0 
-176 -230 0 
-176 -268 -229 0 
-176 268 229 0 
176 -206 207 0 
176 -229 230 0 
176 -268 229 0 
176 268 -229 0 
-177 -208 0 
-177 -229 0 
-177 -269 -228 0 
-177 269 228 0 
177 -207 208 0 
177 -228 229 0 
177 -269 228 0 
177 269 -228 0 
-178 -209 0 
-178 -228 0 
-178 -270 -227 0 
-178 270 227 0 
178 -208 209 0 
178 -227 228 0 
178 -270 227 0 
178 270 -227 0 
-179 -210 0 
-179 -227 0 
-179 -271 -226 0 
-179 271 226 0 
179 -209 210 0 
179 -226 227 0 
179 -271 226 0 
179 271 -226 0 
-180 -211 0 
-180 -226 0 
-180 -272 -225 0 
-180 272 225 0 
180 -210 211 0 
180 -225 226 0 
180 -272 225 0 
180 272 -225 0 
-181 -212 0 
-181 -225 0 
-181 -273 -224 0 
-181 273 224 0 
181 -211 212 0 
181 -224 225 0 
181 -273 224 0 
181 273 -224 0 
-182 -213 0 
-182 -224 0 
-182 -274 223 0 
-182 274 -223 0 
182 -212 213 0 
182 223 224 0 
182 -274 -223 0 
182 274 223 0 
-183 -275 0 
-183 -213 214 0 
-183 -222 223 0 
183 -214 0 
183 -223 0 
183 222 275 0 
-184 -215 0 
-184 -277 0 
-184 -221 222 0 
184 -222 0 
184 -214 215 0 
184 221 277 0 
-185 -279 0 
-185 -215 216 0 
-185 220 221 0 
185 -216 0 
185 -221 0 
185 -220 279 0 
-186 -217 0 
-186 -220 0 
-186 -281 -219 0 
-186 281 219 0 
186 -216 217 0 
186 -219 220 0 
186 -281 219 0 
186 281 -219 0 
-187 -219 0 
-187 -217 218 0 
-187 -282 188 0 
-187 282 -188 0 
187 -218 0 
187 188 219 0 
187 -282 -188 0 
187 282 188 0 
-188 -218 0 
-188 -219 0 
-188 -311 312 0 
188 -312 0 
189 -190 0 
190 -191 0 
191 -192 0 
192 -193 0 
193 -194 0 
194 -195 0 
195 -196 0 
196 -197 0 
197 -198 0 
198 -199 0 
199 -200 0 
200 -201 0 
201 -202 0 
202 -203 0 
203 -204 0 
204 -205 0 
205 -206 0 
206 -207 0 
207 -208 0 
208 -209 0 
209 -210 0 
210 -211 0 
211 -212 0 
212 -213 0 
213 -214 0 
214 -215 0 
215 -216 0 
216 -217 0 
217 -218 0 
219 -220 0 
-220 -221 0 
220 -279 0 
-221 -277 0 
-221 -280 0 
221 -222 0 
221 279 280 0 
-222 -275 0 
-222 -278 0 
222 -223 0 
222 277 278 0 
-223 -224 0 
-223 -276 0 
223 275 276 0 
224 -225 0 
225 -226 0 
226 -227 0 
227 -228 0 
228 -229 0 
229 -230 0 
230 -231 0 
231 -232 0 
232 -233 0 
233 -234 0 
234 -235 0 
235 -236 0 
236 -237 0 
237 -238 0 
238 -239 0 
239 -240 0 
240 -241 0 
241 -242 0 
242 -243 0 
243 -244 0 
244 -245 0 
245 -246 0 
246 -247 0 
247 -248 0 
249 312 0 
-250 -283 0 
250 251 283 0 
-251 -283 0 
-252 -284 0 
252 -283 284 0 
-253 -285 0 
253 -284 285 0 
-254 -286 0 
254 -285 286 0 
-255 -287 0 
255 -286 287 0 
-256 -288 0 
256 -287 288 0 
-257 -289 0 
257 -288 289 0 
-258 -290 0 
258 -289 290 0 
-259 -291 0 
259 -290 291 0 
-260 -292 0 
260 -291 292 0 
-261 -293 0 
261 -292 293 0 
-262 -294 0 
262 -293 294 0 
-263 -295 0 
263 -294 295 0 
-264 -296 0 
264 -295 296 0 
-265 -297 0 
265 -296 297 0 
-266 -298 0 
266 -297 298 0 
-267 -299 0 
267 -298 299 0 
-268 -300 0 
268 -299 300 0 
-269 -301 0 
269 -300 301 0 
-270 -302 0 
270 -301 302 0 
-271 -303 0 
271 -302 303 0 
-272 -304 0 
272 -303 304 0 
-273 -305 0 
273 -304 305 0 
-274 -306 0 
274 -305 306 0 
-275 -276 0 
-276 -307 0 
276 -306 307 0 
-277 -278 0 
-278 -308 0 
278 -307 308 0 
-279 -280 0 
-280 -309 0 
280 -308 309 0 
-281 -310 0 
281 -309 310 0 
-282 -311 0 
282 -310 311 0 
283 -284 0 
284 -285 0 
285 -286 0 
286 -287 0 
287 -288 0 
288 -289 0 
289 -290 0 
290 -291 0 
291 -292 0 
292 -293 0 
293 -294 0 
294 -295 0 
295 -296 0 
296 -297 0 
297 -298 0 
298 -299 0 
299 -300 0 
300 -301 0 
301 -302 0 
302 -303 0 
303 -304 0 
304 -305 0 
305 -306 0 
306 -307 0 
307 -308 0 
308 -309 0 
309 -310 0 
310 -311 0 
311 -312 0 
